[runlim] version:		1.10
[runlim] time limit:		311040000 seconds
[runlim] real time limit:	600 seconds
[runlim] space limit:		3000 MB
[runlim] argv[0]:		python3
[runlim] argv[1]:		-u
[runlim] argv[2]:		mip.py
[runlim] argv[3]:		600
[runlim] argv[4]:		scen03
[runlim] start:			Wed Dec 10 23:19:59 2025
[runlim] main pid:		48877
Building MIP model...
[runlim] sample:		10.0 time, 10.7 real, 32.4 MB
[runlim] sample:		20.0 time, 20.7 real, 34.8 MB
[runlim] sample:		30.0 time, 30.7 real, 36.1 MB
[runlim] sample:		40.0 time, 40.7 real, 37.3 MB
[runlim] sample:		50.0 time, 50.7 real, 38.9 MB
[runlim] sample:		60.0 time, 60.7 real, 40.7 MB
[runlim] sample:		70.0 time, 70.7 real, 42.2 MB
[runlim] sample:		80.0 time, 80.7 real, 44.6 MB
[runlim] sample:		90.0 time, 90.7 real, 44.8 MB
[runlim] sample:		100.0 time, 100.7 real, 47.6 MB
Build time: 101.09s
Solving MIP (minimizing number of labels)...
Version identifier: 22.1.1.0 | 2022-11-28 | 9160aff4d
CPXPARAM_Read_DataCheck                          1
CPXPARAM_TimeLimit                               600
Tried aggregator 2 times.
MIP Presolve eliminated 384490 rows and 17 columns.
MIP Presolve modified 20543 coefficients.
Aggregator did 7946 substitutions.
Reduced MIP has 20743 rows, 7977 columns, and 221157 nonzeros.
Reduced MIP has 7977 binaries, 0 generals, 0 SOSs, and 0 indicators.
Presolve time = 1.43 sec. (1320.07 ticks)
Found incumbent of value 48.000000 after 1.66 sec. (1628.46 ticks)
Probing time = 0.02 sec. (3.94 ticks)
Tried aggregator 2 times.
Detecting symmetries...
MIP Presolve eliminated 2 rows and 1 columns.
Aggregator did 2 substitutions.
Reduced MIP has 20739 rows, 7972 columns, and 221148 nonzeros.
Reduced MIP has 7972 binaries, 0 generals, 0 SOSs, and 0 indicators.
Presolve time = 0.24 sec. (241.31 ticks)
Probing time = 0.02 sec. (4.20 ticks)
Clique table members: 20745.
MIP emphasis: balance optimality and feasibility.
MIP search method: dynamic search.
Parallel mode: deterministic, using up to 12 threads.
[runlim] sample:		156.4 time, 110.7 real, 338.2 MB
Root relaxation solution time = 6.92 sec. (3387.80 ticks)

        Nodes                                         Cuts/
   Node  Left     Objective  IInf  Best Integer    Best Bound    ItCnt     Gap

*     0+    0                           44.0000        0.0000           100.00%
*     0+    0                           22.0000        0.0000           100.00%
*     0+    0                           20.0000        0.0000           100.00%
*     0+    0                           18.0000        0.0000           100.00%
*     0+    0                           16.0000        0.0000           100.00%
*     0+    0                           14.0000        0.0000           100.00%
      0     0       12.0000   522       14.0000       12.0000    20288   14.29%
[runlim] sample:		176.3 time, 120.7 real, 407.9 MB
[runlim] sample:		196.3 time, 130.7 real, 408.9 MB
[runlim] sample:		216.3 time, 140.7 real, 409.2 MB
[runlim] sample:		236.3 time, 150.7 real, 409.3 MB
[runlim] sample:		256.3 time, 160.7 real, 409.3 MB
[runlim] sample:		276.3 time, 170.7 real, 409.3 MB
[runlim] sample:		296.3 time, 180.7 real, 409.3 MB
[runlim] sample:		316.3 time, 190.7 real, 409.4 MB
[runlim] sample:		336.3 time, 200.7 real, 409.6 MB
[runlim] sample:		356.3 time, 210.7 real, 409.6 MB
[runlim] sample:		376.3 time, 220.7 real, 409.6 MB
[runlim] sample:		396.3 time, 230.7 real, 409.6 MB
[runlim] sample:		416.3 time, 240.7 real, 409.6 MB
      0     0       12.0000  1084       14.0000     Cuts: 378    82989   14.29%
[runlim] sample:		436.3 time, 250.7 real, 421.7 MB
[runlim] sample:		456.3 time, 260.7 real, 422.3 MB
[runlim] sample:		476.3 time, 270.7 real, 422.3 MB
[runlim] sample:		496.3 time, 280.7 real, 422.3 MB
[runlim] sample:		516.3 time, 290.7 real, 422.3 MB
[runlim] sample:		536.3 time, 300.7 real, 422.3 MB
[runlim] sample:		556.3 time, 310.7 real, 422.3 MB
[runlim] sample:		576.3 time, 320.7 real, 422.3 MB
[runlim] sample:		596.3 time, 330.7 real, 422.3 MB
      0     0       12.0000  1156       14.0000     Cuts: 373   144295   14.29%
[runlim] sample:		616.2 time, 340.7 real, 422.4 MB
[runlim] sample:		636.2 time, 350.7 real, 422.4 MB
[runlim] sample:		656.2 time, 360.7 real, 422.4 MB
[runlim] sample:		676.3 time, 370.7 real, 422.4 MB
Heuristic still looking.
[runlim] sample:		696.3 time, 380.7 real, 422.4 MB
[runlim] sample:		716.3 time, 390.7 real, 422.4 MB
[runlim] sample:		736.3 time, 400.7 real, 422.4 MB
[runlim] sample:		756.3 time, 410.7 real, 422.4 MB
Heuristic still looking.
[runlim] sample:		779.9 time, 420.7 real, 438.6 MB
[runlim] sample:		835.3 time, 430.7 real, 489.4 MB
[runlim] sample:		901.8 time, 440.7 real, 499.8 MB
[runlim] sample:		958.3 time, 450.7 real, 500.8 MB
[runlim] sample:		1008.9 time, 460.7 real, 501.8 MB
[runlim] sample:		1061.1 time, 470.7 real, 502.4 MB
[runlim] sample:		1106.8 time, 480.7 real, 502.6 MB
[runlim] sample:		1147.1 time, 490.7 real, 504.9 MB
[runlim] sample:		1175.7 time, 500.7 real, 505.9 MB
Detecting symmetries...
      0     2       12.0000  1156       14.0000       12.0000   144295   14.29%
Elapsed time = 399.43 sec. (361867.34 ticks, tree = 0.02 MB, solutions = 7)
[runlim] sample:		1195.6 time, 510.7 real, 519.1 MB
[runlim] sample:		1215.6 time, 520.7 real, 519.2 MB
[runlim] sample:		1235.6 time, 530.7 real, 519.2 MB
[runlim] sample:		1255.6 time, 540.7 real, 519.2 MB
[runlim] sample:		1275.6 time, 550.7 real, 519.2 MB
[runlim] sample:		1295.6 time, 560.7 real, 519.2 MB
[runlim] sample:		1315.6 time, 570.7 real, 519.2 MB
      1     3       12.0000  1083       14.0000       12.0000   222167   14.29%
[runlim] sample:		1341.9 time, 580.7 real, 519.2 MB
[runlim] sample:		1371.9 time, 590.7 real, 523.4 MB
[runlim] end:			Wed Dec 10 23:29:59 2025
[runlim] status:		out of time
[runlim] result:		2
[runlim] children:		0
[runlim] real:			600.07 seconds
[runlim] time:			1399.82 seconds
[runlim] space:			523.8 MB
[runlim] samples:		5993
